(declare-datatypes ((Unit 0)) (((unit))))
(declare-datatypes ((Bits 0)) (((Bits (len (_ BitVec 8)) (contents (_ BitVec 64))))))
(declare-datatypes ((Zfloat_bits 0)) (((Zfloat_bits (Zfloat_bits_zexp Bits) (Zfloat_bits_zmantissa Bits) (Zfloat_bits_zsign (_ BitVec 1))))))
(declare-datatypes ((Zexception 0)) (((z__dummy_exnz3 (unz__dummy_exnz3 Unit)))))
(declare-const zz41543/1 (_ BitVec 32))
(declare-const zz41544/1 (_ BitVec 4))
(define-const zz41545/2 (_ BitVec 32) zz41543/1)
(define-const zz41557/2 (_ BitVec 64) (bvshl #x0000000000000001 (concat #x000000000000000 zz41544/1)))
(declare-const zz41562/1 Bits)
(assert (= (bvand (bvnot (bvnot (bvshl #xFFFFFFFFFFFFFFFF (concat #x00000000000000 (len zz41562/1))))) (contents zz41562/1)) #x0000000000000000))
(declare-const zz41563/1 Bits)
(assert (= (bvand (bvnot (bvnot (bvshl #xFFFFFFFFFFFFFFFF (concat #x00000000000000 (len zz41563/1))))) (contents zz41563/1)) #x0000000000000000))
(define-const zz41563/2 Bits (Bits ((_ extract 7 0) (concat #x000000000000000 zz41544/1)) #x0000000000000000))
(define-const zz41559/2 (_ BitVec 32) (bvnot ((_ extract 31 0) (contents (Bits (len zz41563/2) (bvand (bvnot (bvshl #xFFFFFFFFFFFFFFFF (concat #x00000000000000 (len zz41563/2)))) (bvnot (contents zz41563/2))))))))
(define-const zz41567/2 (_ BitVec 64) ((_ extract 63 0) (bvsub ((_ sign_extend 1) zz41557/2) #b00000000000000000000000000000000000000000000000000000000000000001)))
(assert (and (not (= (= (bvand zz41545/2 zz41559/2) (bvand (bvadd zz41545/2 ((_ extract 31 0) zz41567/2)) zz41559/2)) (= (bvsrem (concat #x00000000 zz41545/2) zz41557/2) #x0000000000000000))) (ite (= ((_ extract 63 63) (bvsub ((_ sign_extend 1) zz41557/2) #b00000000000000000000000000000000000000000000000000000000000000001)) #b1) (= ((_ extract 64 64) (bvsub ((_ sign_extend 1) zz41557/2) #b00000000000000000000000000000000000000000000000000000000000000001)) #b1) (= ((_ extract 64 64) (bvsub ((_ sign_extend 1) zz41557/2) #b00000000000000000000000000000000000000000000000000000000000000001)) #b0)) (ite (= ((_ extract 31 31) zz41567/2) #b1) (= ((_ extract 63 32) zz41567/2) #xFFFFFFFF) (= ((_ extract 63 32) zz41567/2) #x00000000))))
(check-sat)
